N = 9;
H = 5;
T = 2;

avail = array3d(1..N, 1..H, 1..T, [8, 0, 9, 9, 9, 9, 5, 9, 6, 5, 10, 10, 7, 10, 5, 6, 4, 8, 10, 5, 2, 7, 1, 8, 10, 7, 7, 3, 4, 10, 7, 0, 9, 6, 8, 1, 8, 4, 4, 4, 10, 7, 7, 3, 10, 10, 10, 6, 10, 5, 9, 8, 2, 0, 5, 4, 6, 1, 8, 0, 3, 6, 5, 1, 6, 10, 7, 7, 6, 2, 3, 0, 5, 7, 10, 9, 6, 9, 8, 3, 2, 10, 1, 8, 8, 2, 4, 9, 6, 1]);

r = array2d(1..H, 1..T, [1, 1, 2, 4, 2, 3, 1, 5, 4, 3]);
